p edge 50 115
e 0 2
e 0 29
e 0 45
e 1 7
e 1 21
e 1 22
e 1 47
e 2 3
e 2 6
e 2 11
e 2 31
e 2 34
e 2 46
e 3 19
e 3 21
e 3 25
e 3 29
e 3 32
e 3 39
e 4 11
e 4 25
e 4 29
e 5 23
e 5 26
e 5 27
e 5 42
e 6 8
e 6 11
e 6 36
e 6 45
e 6 46
e 7 11
e 7 25
e 7 32
e 8 30
e 8 33
e 8 45
e 9 16
e 9 28
e 9 42
e 10 15
e 10 22
e 10 37
e 10 42
e 11 23
e 11 34
e 11 36
e 12 14
e 13 16
e 13 17
e 13 22
e 13 26
e 13 36
e 13 42
e 13 43
e 14 15
e 14 20
e 14 32
e 14 36
e 15 31
e 16 25
e 16 28
e 16 32
e 17 28
e 17 31
e 17 45
e 17 46
e 18 32
e 18 35
e 18 40
e 18 43
e 19 26
e 19 35
e 19 39
e 19 49
e 20 37
e 21 27
e 21 48
e 22 30
e 23 36
e 23 43
e 23 45
e 24 45
e 25 35
e 25 37
e 26 28
e 26 40
e 27 34
e 28 39
e 28 47
e 29 40
e 29 44
e 30 31
e 31 32
e 31 43
e 33 37
e 33 38
e 33 39
e 33 42
e 34 37
e 34 40
e 34 44
e 35 39
e 36 39
e 38 47
e 39 44
e 40 47
e 40 48
e 41 48
e 42 44
e 42 47
e 42 49
e 43 45
e 45 47
e 45 48
